nN = 6;
nR = 15;
nH = 1;

a = [[7, 8, 12, 5, 23, 22, 20, 25, 23, 6, 7, 13, 11, 23, 12], [24, 24, 9, 15, 7, 24, 13, 14, 17, 23, 7, 16, 17, 22, 16], [8, 24, 8, 18, 25, 8, 13, 5, 24, 8, 7, 5, 11, 21, 18], [13, 8, 9, 21, 14, 21, 15, 20, 25, 17, 25, 7, 19, 6, 16], [14, 23, 16, 16, 20, 20, 12, 19, 7, 25, 18, 25, 22, 11, 5], [11, 23, 10, 17, 18, 15, 25, 18, 21, 21, 15, 7, 16, 11, 21]];
c = [[[0, 0, 0, 0, 0, 0, 0, 0, 0, 0, 0, 0, 0, 0, 0], [37, 46, 50, 41, 34, 32, 47, 34, 38, 41, 36, 32, 35, 45, 41], [32, 43, 47, 40, 41, 30, 45, 36, 39, 37, 36, 38, 47, 36, 40], [39, 44, 31, 36, 49, 41, 41, 46, 32, 40, 45, 34, 45, 31, 32], [47, 33, 30, 31, 45, 50, 42, 45, 44, 47, 43, 33, 45, 42, 39], [49, 35, 49, 41, 31, 39, 36, 32, 41, 48, 33, 32, 49, 31, 44]], [[0, 0, 0, 0, 0, 0, 0, 0, 0, 0, 0, 0, 0, 0, 0], [0, 0, 0, 0, 0, 0, 0, 0, 0, 0, 0, 0, 0, 0, 0], [48, 32, 31, 48, 37, 46, 31, 49, 33, 33, 31, 36, 47, 36, 47], [50, 30, 46, 43, 34, 50, 50, 37, 47, 32, 45, 45, 35, 36, 38], [48, 47, 48, 32, 49, 38, 35, 39, 43, 36, 49, 39, 34, 34, 42], [42, 41, 35, 31, 50, 38, 40, 48, 35, 43, 38, 45, 50, 33, 34]], [[0, 0, 0, 0, 0, 0, 0, 0, 0, 0, 0, 0, 0, 0, 0], [0, 0, 0, 0, 0, 0, 0, 0, 0, 0, 0, 0, 0, 0, 0], [0, 0, 0, 0, 0, 0, 0, 0, 0, 0, 0, 0, 0, 0, 0], [49, 44, 44, 48, 45, 39, 35, 38, 37, 37, 35, 48, 43, 49, 33], [34, 40, 32, 38, 46, 34, 41, 32, 42, 48, 47, 32, 32, 47, 48], [50, 38, 40, 34, 45, 34, 41, 31, 49, 46, 46, 44, 47, 30, 45]], [[0, 0, 0, 0, 0, 0, 0, 0, 0, 0, 0, 0, 0, 0, 0], [0, 0, 0, 0, 0, 0, 0, 0, 0, 0, 0, 0, 0, 0, 0], [0, 0, 0, 0, 0, 0, 0, 0, 0, 0, 0, 0, 0, 0, 0], [0, 0, 0, 0, 0, 0, 0, 0, 0, 0, 0, 0, 0, 0, 0], [47, 38, 50, 36, 50, 38, 38, 45, 49, 50, 40, 37, 46, 48, 42], [33, 35, 48, 41, 42, 33, 48, 40, 46, 42, 33, 37, 50, 40, 34]], [[0, 0, 0, 0, 0, 0, 0, 0, 0, 0, 0, 0, 0, 0, 0], [0, 0, 0, 0, 0, 0, 0, 0, 0, 0, 0, 0, 0, 0, 0], [0, 0, 0, 0, 0, 0, 0, 0, 0, 0, 0, 0, 0, 0, 0], [0, 0, 0, 0, 0, 0, 0, 0, 0, 0, 0, 0, 0, 0, 0], [0, 0, 0, 0, 0, 0, 0, 0, 0, 0, 0, 0, 0, 0, 0], [32, 41, 31, 37, 38, 47, 45, 38, 46, 33, 50, 30, 43, 50, 48]], [[0, 0, 0, 0, 0, 0, 0, 0, 0, 0, 0, 0, 0, 0, 0], [0, 0, 0, 0, 0, 0, 0, 0, 0, 0, 0, 0, 0, 0, 0], [0, 0, 0, 0, 0, 0, 0, 0, 0, 0, 0, 0, 0, 0, 0], [0, 0, 0, 0, 0, 0, 0, 0, 0, 0, 0, 0, 0, 0, 0], [0, 0, 0, 0, 0, 0, 0, 0, 0, 0, 0, 0, 0, 0, 0], [0, 0, 0, 0, 0, 0, 0, 0, 0, 0, 0, 0, 0, 0, 0]]];
Q = [[28], [30], [30], [33], [28], [33]];

q = [[[15], [15], [15], [18], [6], [25], [7], [19], [10], [8], [23], [22], [12], [9], [6]], [[18], [15], [20], [13], [16], [15], [15], [12], [9], [22], [16], [5], [12], [14], [19]], [[19], [9], [15], [15], [15], [23], [17], [6], [23], [21], [7], [9], [14], [22], [9]], [[14], [22], [15], [16], [13], [22], [8], [18], [22], [13], [20], [13], [17], [16], [15]], [[22], [12], [24], [13], [9], [7], [6], [21], [8], [6], [18], [12], [13], [22], [10]], [[24], [23], [9], [12], [12], [19], [22], [14], [20], [23], [12], [15], [15], [17], [6]]];
p = [0.04, 0.77, 0.94, 0.99, 0.4, 0.41, 0.18, 0.24, 0.35, 0.42, 0.57, 0.38, 0.38, 0.38, 0.22];
